CPXPARAM_TimeLimit                               3600
CPXPARAM_Read_DataCheck                          1
Tried aggregator 1 time.
MIP Presolve eliminated 3476 rows and 0 columns.
MIP Presolve modified 5960 coefficients.
Reduced MIP has 157304 rows, 72601 columns, and 746904 nonzeros.
Reduced MIP has 3800 binaries, 0 generals, 0 SOSs, and 0 indicators.
Presolve time = 0.12 sec. (208.57 ticks)
Found incumbent of value 16443.000000 after 0.29 sec. (404.92 ticks)
Probing fixed 0 vars, tightened 3 bounds.
Probing time = 0.04 sec. (42.16 ticks)
Tried aggregator 1 time.
Reduced MIP has 157304 rows, 72601 columns, and 746904 nonzeros.
Reduced MIP has 3800 binaries, 0 generals, 0 SOSs, and 0 indicators.
Presolve time = 0.29 sec. (301.37 ticks)
Probing time = 0.03 sec. (31.92 ticks)
MIP emphasis: balance optimality and feasibility.
MIP search method: dynamic search.
Parallel mode: deterministic, using up to 8 threads.
Root relaxation solution time = 961.09 sec. (230950.46 ticks)

        Nodes                                         Cuts/
   Node  Left     Objective  IInf  Best Integer    Best Bound    ItCnt     Gap

*     0+    0                        16443.0000     1260.0000            92.34%
*     0+    0                        15626.0000     1260.0000            91.94%
      0     0     1275.3497  3198    15626.0000     1275.3497   226332   91.84%
      0     0     1280.7807  3167    15626.0000    Cuts: 2893   372168   91.80%

Implied bound cuts applied:  426
Flow cuts applied:  755
Mixed integer rounding cuts applied:  1861
Gomory fractional cuts applied:  43

Root node processing (before b&c):
  Real time             = 3600.08 sec. (2124904.87 ticks)
Parallel b&c, 8 threads:
  Real time             =    0.00 sec. (0.00 ticks)
  Sync time (average)   =    0.00 sec.
  Wait time (average)   =    0.00 sec.
                          ------------
Total (root+branch&cut) = 3600.08 sec. (2124904.87 ticks)
